Files/Udemy_Operations Research and Optimization Projects with Python/optimization_report.sol
# Solution for model FacilityLocation
# Objective value = 39650
x[0,0] 500
x[0,1] 0
x[0,2] 700
x[1,0] 0
x[1,1] 0
x[1,2] 0
x[2,0] 0
x[2,1] 0
x[2,2] 0
x[3,0] 0
x[3,1] 0
x[3,2] 0
x[4,0] 0
x[4,1] 600
x[4,2] 0
y[0] 1
y[1] 0
y[2] 0
y[3] 0
y[4] 1
